job_count = 26 ;
duration = [|21, 11, 8, 8|13, 23, 18, 2|20, 9, 5, 1|6, 16, 14, 9|6, 13, 12, 7|35, 5, 10, 9|39, 6, 15, 9|18, 10, 11, 2|6, 18, 6, 5|27, 22, 19, 5|10, 10, 10, 7|36, 8, 5, 2|24, 12, 19, 2|26, 4, 18, 9|30, 7, 8, 3|8, 21, 18, 7|5, 9, 12, 2|11, 4, 18, 8|17, 27, 14, 5|22, 3, 2, 7|14, 15, 5, 8|15, 10, 11, 5|24, 11, 16, 6|7, 6, 18, 7|30, 13, 11, 4|33, 12, 17, 4|] ;
machine_count = 4 ;
cost = [|18, 21, 41, 58|16, 25, 36, 42|13, 25, 47, 52|10, 34, 55, 77|18, 30, 36, 79|11, 37, 31, 67|11, 21, 31, 54|18, 29, 37, 48|14, 29, 38, 57|10, 33, 58, 72|11, 32, 35, 49|18, 38, 50, 67|13, 33, 55, 64|12, 24, 37, 67|11, 34, 31, 58|19, 29, 34, 40|10, 31, 38, 61|15, 24, 49, 63|12, 32, 52, 63|10, 24, 52, 40|13, 24, 43, 55|19, 26, 32, 55|11, 24, 43, 58|17, 21, 40, 40|16, 37, 43, 77|18, 39, 45, 60|] ;
deadline = [54, 54, 54, 54, 54, 54, 54, 54, 54, 54, 54, 54, 54, 54, 54, 54, 54, 54, 54, 54, 54, 54, 54, 54, 54, 54] ;
release = [0, 0, 0, 0, 0, 0, 0, 0, 0, 0, 0, 0, 0, 0, 0, 0, 0, 0, 0, 0, 0, 0, 0, 0, 0, 0] ;
resource = [|4, 4, 4, 4|1, 1, 1, 1|7, 7, 7, 7|4, 4, 4, 4|2, 2, 2, 2|4, 4, 4, 4|6, 6, 6, 6|9, 9, 9, 9|8, 8, 8, 8|9, 9, 9, 9|7, 7, 7, 7|3, 3, 3, 3|7, 7, 7, 7|3, 3, 3, 3|8, 8, 8, 8|7, 7, 7, 7|6, 6, 6, 6|7, 7, 7, 7|4, 4, 4, 4|3, 3, 3, 3|1, 1, 1, 1|6, 6, 6, 6|6, 6, 6, 6|7, 7, 7, 7|3, 3, 3, 3|9, 9, 9, 9|] ;
capacities = [10, 10, 10, 10] ;
